(set-info :source |printed by MathSAT|)
(declare-fun call_speed.call__COUNTER_.ite () Int)
(declare-fun call_speed.incr () Int)
(declare-fun early () Bool)
(declare-fun call_speed.call__COUNTER_._C_ () Int)
(declare-fun call_speed.late () Bool)
(declare-fun call_speed.call__COUNTER_.ite2 () Int)
(declare-fun param_beacon () Bool)
(declare-fun call_speed.flby () Bool)
(declare-fun flby () Bool)
(declare-fun call_speed.call__COUNTER_.flby () Int)
(declare-fun param_second () Bool)
(declare-fun call_speed.flby2 () Bool)
(declare-fun call_speed.diff () Int)
(declare-fun call_speed.ite () Int)
(declare-fun call_speed.ite2 () Int)
(declare-fun call_speed.call__COUNTER_._PC_ () Int)
(declare-fun _OK_ () Bool)
(declare-fun call_speed.early () Bool)
(declare-fun late () Bool)
(define-fun .def_272 () Bool (= call_speed.call__COUNTER_.flby 0))
(define-fun .def_270 () Bool (not call_speed.flby2))
(define-fun .def_268 () Bool (not call_speed.flby))
(define-fun .def_269 () Bool (and flby .def_268))
(define-fun .def_271 () Bool (and .def_269 .def_270))
(define-fun .def_273 () Bool (and .def_271 .def_272))
(define-fun .def_266 () Bool (= call_speed.call__COUNTER_.ite call_speed.call__COUNTER_.ite2))
(define-fun .def_264 () Bool (= call_speed.call__COUNTER_._PC_ call_speed.call__COUNTER_.flby))
(define-fun .def_261 () Bool (= call_speed.call__COUNTER_._C_ call_speed.call__COUNTER_.ite2))
(define-fun .def_258 () Bool (= call_speed.incr call_speed.ite2))
(define-fun .def_256 () Bool (= call_speed.diff call_speed.call__COUNTER_._C_))
(define-fun .def_252 () Bool (= call_speed.early call_speed.flby))
(define-fun .def_249 () Bool (= call_speed.late call_speed.flby2))
(define-fun .def_244 () Bool (= call_speed.ite call_speed.ite2))
(define-fun .def_239 () Bool (not param_second))
(define-fun .def_240 () Bool (and param_beacon .def_239))
(define-fun .def_245 () Bool (or .def_240 .def_244))
(define-fun .def_241 () Bool (not .def_240))
(define-fun .def_238 () Bool (= call_speed.ite2 1))
(define-fun .def_242 () Bool (or .def_238 .def_241))
(define-fun .def_234 () Bool (= call_speed.ite 0))
(define-fun .def_229 () Bool (not param_beacon))
(define-fun .def_230 () Bool (and param_second .def_229))
(define-fun .def_235 () Bool (or .def_230 .def_234))
(define-fun .def_231 () Bool (not .def_230))
(define-fun .def_228 () Bool (= call_speed.ite 2))
(define-fun .def_232 () Bool (or .def_228 .def_231))
(define-fun .def_213 () Bool (and param_beacon param_second))
(define-fun .def_224 () Bool (not .def_213))
(define-fun .def_220 () Int (* (- 1) call_speed.call__COUNTER_.ite))
(define-fun .def_221 () Int (+ .def_220 call_speed.incr))
(define-fun .def_222 () Int (+ call_speed.call__COUNTER_._PC_ .def_221))
(define-fun .def_223 () Bool (= .def_222 0))
(define-fun .def_225 () Bool (or .def_223 .def_224))
(define-fun .def_210 () Bool (= call_speed.call__COUNTER_._PC_ call_speed.call__COUNTER_.ite))
(define-fun .def_214 () Bool (or .def_210 .def_213))
(define-fun .def_226 () Bool (and .def_214 .def_225))
(define-fun .def_233 () Bool (and .def_226 .def_232))
(define-fun .def_236 () Bool (and .def_233 .def_235))
(define-fun .def_243 () Bool (and .def_236 .def_242))
(define-fun .def_246 () Bool (and .def_243 .def_245))
(define-fun .def_206 () Bool (= early call_speed.early))
(define-fun .def_202 () Bool (= late call_speed.late))
(define-fun .def_199 () Bool (= _OK_ flby))
(define-fun .def_203 () Bool (and .def_199 .def_202))
(define-fun .def_207 () Bool (and .def_203 .def_206))
(define-fun .def_247 () Bool (and .def_207 .def_246))
(define-fun .def_250 () Bool (and .def_247 .def_249))
(define-fun .def_253 () Bool (and .def_250 .def_252))
(define-fun .def_257 () Bool (and .def_253 .def_256))
(define-fun .def_259 () Bool (and .def_257 .def_258))
(define-fun .def_262 () Bool (and .def_259 .def_261))
(define-fun .def_265 () Bool (and .def_262 .def_264))
(define-fun .def_267 () Bool (and .def_265 .def_266))
(define-fun .def_274 () Bool (and .def_267 .def_273))
(assert .def_274)
